decision_x1=[0,7];
decision_x2=[0,7];
decision_x3=[0,7];
decision_x4=[0,7];
decision_x5=[0,7];
decision_x6=[0,7];
decision_x7=[0,7];
decision_x8=[0,7];
decision_x9=[0,7];
decision_x10=[0,7];
decision_x11=[0,7];
decision_x12=[0,7];
decision_x13=[0,7];
decision_x14=[0,7];
random_y1=[0,7];
random_y2=[0,7];
random_y3=[0,7];
random_y4=[0,7];
random_y5=[0,7];
random_y6=[0,7];
constraint_x2_x1=[
0,0,10|
0,1,3.8|
0,2,9.1|
0,3,4.4|
0,4,3.8|
0,5,2.8|
0,6,6.6|
0,7,0.4|
1,0,9|
1,1,3.2|
1,2,10|
1,3,9.6|
1,4,6.1|
1,5,9.7|
1,6,1.8|
1,7,0.48|
2,0,0.22|
2,1,5.2|
2,2,9.3|
2,3,9.8|
2,4,8.6|
2,5,7.8|
2,6,8|
2,7,4.1|
3,0,8.5|
3,1,6.4|
3,2,1.3|
3,3,4.1|
3,4,9.4|
3,5,2.8|
3,6,8.4|
3,7,8.1|
4,0,8.9|
4,1,6.8|
4,2,4.4|
4,3,3.2|
4,4,9.5|
4,5,6|
4,6,0.12|
4,7,5.5|
5,0,4.3|
5,1,7.1|
5,2,3.2|
5,3,2.5|
5,4,9.2|
5,5,1.7|
5,6,4.5|
5,7,8|
6,0,3.1|
6,1,9.2|
6,2,4.7|
6,3,6.7|
6,4,8.6|
6,5,7.7|
6,6,7.9|
6,7,1.2|
7,0,8.1|
7,1,5.3|
7,2,5.7|
7,3,4.4|
7,4,8.8|
7,5,9.1|
7,6,5|
7,7,5.9|
];
constraint_x3_x2=[
0,0,2|
0,1,0.36|
0,2,2.8|
0,3,0.32|
0,4,9.9|
0,5,4.5|
0,6,0.093|
0,7,9.4|
1,0,8.9|
1,1,1.2|
1,2,0.61|
1,3,3.6|
1,4,0.92|
1,5,7.9|
1,6,8.5|
1,7,5|
2,0,2.6|
2,1,0.02|
2,2,5.3|
2,3,7.6|
2,4,2.6|
2,5,7.4|
2,6,2.6|
2,7,5.3|
3,0,8.7|
3,1,4.9|
3,2,5.9|
3,3,1.6|
3,4,3.6|
3,5,5.9|
3,6,0.97|
3,7,8|
4,0,3.4|
4,1,4.8|
4,2,0.15|
4,3,10|
4,4,9.8|
4,5,9.9|
4,6,3|
4,7,8.1|
5,0,1.7|
5,1,8.6|
5,2,9.3|
5,3,9.1|
5,4,8.3|
5,5,6.1|
5,6,6.2|
5,7,2.6|
6,0,7.3|
6,1,6.3|
6,2,7.1|
6,3,8.7|
6,4,1.8|
6,5,5.8|
6,6,2.7|
6,7,7.4|
7,0,2.3|
7,1,1.8|
7,2,1.2|
7,3,9.6|
7,4,7.5|
7,5,2.6|
7,6,6.7|
7,7,3.4|
];
constraint_x4_x3=[
0,0,4.8|
0,1,4.8|
0,2,8.4|
0,3,5.8|
0,4,3.8|
0,5,2.8|
0,6,5.3|
0,7,0.42|
1,0,0.22|
1,1,5.8|
1,2,6.8|
1,3,2.5|
1,4,2.2|
1,5,1.4|
1,6,9.9|
1,7,5.2|
2,0,5.3|
2,1,7.5|
2,2,2.9|
2,3,5.4|
2,4,7|
2,5,8.7|
2,6,7.3|
2,7,4.5|
3,0,9.9|
3,1,3|
3,2,1.4|
3,3,1.4|
3,4,5|
3,5,8.6|
3,6,0.74|
3,7,9.9|
4,0,6.3|
4,1,2.6|
4,2,3.5|
4,3,3.8|
4,4,3.1|
4,5,7.5|
4,6,5.1|
4,7,6.5|
5,0,7|
5,1,0.37|
5,2,1.1|
5,3,6.2|
5,4,0.72|
5,5,9.2|
5,6,4.6|
5,7,5.6|
6,0,0.13|
6,1,3.3|
6,2,0.64|
6,3,1.1|
6,4,0.56|
6,5,2.6|
6,6,1.3|
6,7,4.4|
7,0,4.4|
7,1,2.2|
7,2,4.7|
7,3,8.2|
7,4,2.6|
7,5,8.9|
7,6,6.3|
7,7,6.2|
];
constraint_x5_x1=[
0,0,7.9|
0,1,7.6|
0,2,2.7|
0,3,4.6|
0,4,2.6|
0,5,2.6|
0,6,2.9|
0,7,6|
1,0,8|
1,1,3.4|
1,2,6.1|
1,3,3|
1,4,3.2|
1,5,8.9|
1,6,5|
1,7,2.9|
2,0,3|
2,1,7.4|
2,2,7.5|
2,3,7.9|
2,4,9.4|
2,5,4.7|
2,6,4.6|
2,7,8.5|
3,0,5.6|
3,1,5.1|
3,2,0.81|
3,3,2|
3,4,2.9|
3,5,7.9|
3,6,9.3|
3,7,6.4|
4,0,4.9|
4,1,9.9|
4,2,4.9|
4,3,9.3|
4,4,4.6|
4,5,1.5|
4,6,7.5|
4,7,9.4|
5,0,5.5|
5,1,8.7|
5,2,2.1|
5,3,8.9|
5,4,0.97|
5,5,6.8|
5,6,7.6|
5,7,8.9|
6,0,7.2|
6,1,4.8|
6,2,6.1|
6,3,2.1|
6,4,9.1|
6,5,0.59|
6,6,2.1|
6,7,4|
7,0,3.5|
7,1,0.34|
7,2,9|
7,3,2.5|
7,4,0.086|
7,5,0.5|
7,6,6.1|
7,7,2.1|
];
constraint_x6_x2=[
0,0,8.6|
0,1,7.7|
0,2,2.7|
0,3,3.7|
0,4,6.4|
0,5,4.5|
0,6,7.4|
0,7,6.8|
1,0,7.3|
1,1,2.6|
1,2,8.1|
1,3,1.5|
1,4,1|
1,5,0.0095|
1,6,0.18|
1,7,5.3|
2,0,9.5|
2,1,0.3|
2,2,2.7|
2,3,7.3|
2,4,6.6|
2,5,4.9|
2,6,4.5|
2,7,3|
3,0,2.1|
3,1,6.8|
3,2,2.8|
3,3,6.9|
3,4,2.3|
3,5,9|
3,6,3.1|
3,7,9.8|
4,0,2.7|
4,1,8.2|
4,2,7.7|
4,3,4.7|
4,4,0.18|
4,5,4.8|
4,6,0.93|
4,7,2.4|
5,0,7|
5,1,6|
5,2,8.6|
5,3,8.3|
5,4,5.1|
5,5,9.2|
5,6,5.9|
5,7,7.8|
6,0,8.3|
6,1,6.4|
6,2,2.3|
6,3,1.7|
6,4,6.9|
6,5,3.7|
6,6,1.5|
6,7,0.17|
7,0,2.1|
7,1,7.6|
7,2,8.1|
7,3,10|
7,4,1.8|
7,5,4.4|
7,6,2.3|
7,7,0.53|
];
constraint_x7_x3=[
0,0,1.1|
0,1,0.65|
0,2,8.5|
0,3,0.49|
0,4,4.5|
0,5,2.9|
0,6,0.99|
0,7,1.3|
1,0,8.9|
1,1,5.9|
1,2,7|
1,3,1.7|
1,4,6.1|
1,5,0.43|
1,6,3.4|
1,7,0.81|
2,0,2.9|
2,1,8.6|
2,2,6.2|
2,3,6.5|
2,4,3.4|
2,5,1.9|
2,6,1.2|
2,7,7.1|
3,0,9.5|
3,1,7.2|
3,2,7.8|
3,3,8.6|
3,4,6|
3,5,6.2|
3,6,2.2|
3,7,6|
4,0,0.99|
4,1,7.8|
4,2,10|
4,3,3.2|
4,4,1.2|
4,5,9.7|
4,6,5|
4,7,3.9|
5,0,5.8|
5,1,1.5|
5,2,1|
5,3,0.4|
5,4,9.3|
5,5,4.4|
5,6,9.3|
5,7,8.7|
6,0,8.8|
6,1,3.7|
6,2,4.9|
6,3,8.6|
6,4,4.8|
6,5,8.5|
6,6,9|
6,7,8.5|
7,0,3.6|
7,1,6.9|
7,2,9.7|
7,3,6.7|
7,4,5|
7,5,2.4|
7,6,9.3|
7,7,7.4|
];
constraint_x8_x4=[
0,0,2.8|
0,1,8|
0,2,2.4|
0,3,0.77|
0,4,3.3|
0,5,4.1|
0,6,4.7|
0,7,2.9|
1,0,6.3|
1,1,4|
1,2,1.6|
1,3,8.3|
1,4,1.9|
1,5,3.6|
1,6,0.21|
1,7,8.6|
2,0,3.6|
2,1,9.3|
2,2,8.1|
2,3,4.5|
2,4,9.5|
2,5,3.9|
2,6,3.8|
2,7,1.4|
3,0,1.5|
3,1,3.2|
3,2,6.3|
3,3,6.9|
3,4,8.5|
3,5,7.1|
3,6,2.3|
3,7,9.8|
4,0,6.9|
4,1,8|
4,2,4.6|
4,3,5.4|
4,4,5.5|
4,5,0.3|
4,6,2.5|
4,7,3.3|
5,0,9.7|
5,1,3.7|
5,2,5.1|
5,3,8.3|
5,4,5.2|
5,5,5.8|
5,6,3.5|
5,7,5.9|
6,0,6.6|
6,1,9|
6,2,9.6|
6,3,5.3|
6,4,6.6|
6,5,9.5|
6,6,9.6|
6,7,3.5|
7,0,9.4|
7,1,9.3|
7,2,3.2|
7,3,6|
7,4,3.3|
7,5,3|
7,6,6.2|
7,7,9.3|
];
constraint_x9_x5=[
0,0,3.5|
0,1,5.6|
0,2,8.6|
0,3,3.8|
0,4,7.6|
0,5,6.4|
0,6,4.3|
0,7,3.2|
1,0,4|
1,1,0.92|
1,2,9.2|
1,3,3.7|
1,4,9.8|
1,5,5.2|
1,6,5.7|
1,7,6.4|
2,0,0.034|
2,1,1.3|
2,2,1.5|
2,3,9.6|
2,4,3.8|
2,5,10|
2,6,1.1|
2,7,4|
3,0,4.4|
3,1,1.2|
3,2,2.3|
3,3,4.5|
3,4,0.17|
3,5,2.4|
3,6,0.49|
3,7,8.7|
4,0,1|
4,1,2.7|
4,2,4.1|
4,3,9.1|
4,4,3.4|
4,5,9.2|
4,6,9.8|
4,7,3.8|
5,0,9.7|
5,1,0.84|
5,2,4|
5,3,7.7|
5,4,9.4|
5,5,0.47|
5,6,2.4|
5,7,9.9|
6,0,1.7|
6,1,0.029|
6,2,6.2|
6,3,7.9|
6,4,0.93|
6,5,8.2|
6,6,9.3|
6,7,9.4|
7,0,8.3|
7,1,2.4|
7,2,5.9|
7,3,0.66|
7,4,3.2|
7,5,5|
7,6,0.23|
7,7,6.1|
];
constraint_x10_x6=[
0,0,2|
0,1,6.2|
0,2,7.4|
0,3,8.4|
0,4,0.69|
0,5,2.5|
0,6,1.8|
0,7,7.9|
1,0,0.58|
1,1,5.7|
1,2,8.8|
1,3,8.5|
1,4,4.6|
1,5,7.6|
1,6,3.6|
1,7,4.7|
2,0,1.5|
2,1,3.5|
2,2,4.1|
2,3,5.3|
2,4,5.4|
2,5,0.66|
2,6,5.7|
2,7,1.9|
3,0,3.9|
3,1,3.3|
3,2,1.6|
3,3,7.5|
3,4,9|
3,5,2.8|
3,6,6.4|
3,7,1.2|
4,0,0.17|
4,1,9.6|
4,2,6.8|
4,3,6.3|
4,4,8.2|
4,5,6|
4,6,7.5|
4,7,7.4|
5,0,6.8|
5,1,8.1|
5,2,4.9|
5,3,4.9|
5,4,2.4|
5,5,3.5|
5,6,8.4|
5,7,6.4|
6,0,8.9|
6,1,4.4|
6,2,9.3|
6,3,2.1|
6,4,0.89|
6,5,6.1|
6,6,2.7|
6,7,2.3|
7,0,9.8|
7,1,1.2|
7,2,9|
7,3,2.3|
7,4,6.3|
7,5,1.9|
7,6,1.1|
7,7,1.1|
];
constraint_x11_x7=[
0,0,3.8|
0,1,7.5|
0,2,0.16|
0,3,2.2|
0,4,7|
0,5,7.3|
0,6,7.5|
0,7,5.5|
1,0,5.6|
1,1,8.1|
1,2,7.4|
1,3,2.9|
1,4,2.2|
1,5,0.53|
1,6,1.4|
1,7,8|
2,0,3|
2,1,4|
2,2,8.6|
2,3,9.4|
2,4,6.6|
2,5,4.8|
2,6,6.9|
2,7,4.5|
3,0,0.16|
3,1,8.3|
3,2,4.7|
3,3,4.7|
3,4,3.6|
3,5,9.5|
3,6,1.5|
3,7,2.4|
4,0,4.7|
4,1,0.95|
4,2,1.8|
4,3,2.9|
4,4,1.8|
4,5,0.096|
4,6,8.9|
4,7,7|
5,0,7.2|
5,1,8.2|
5,2,3.5|
5,3,5.7|
5,4,6.7|
5,5,8.3|
5,6,9|
5,7,9.1|
6,0,7.8|
6,1,1.8|
6,2,2.1|
6,3,4|
6,4,0.77|
6,5,6.5|
6,6,0.53|
6,7,6.3|
7,0,4.8|
7,1,1.9|
7,2,10|
7,3,1.2|
7,4,8.5|
7,5,3|
7,6,3.2|
7,7,4.3|
];
constraint_x12_x8=[
0,0,8.5|
0,1,7.6|
0,2,6.2|
0,3,7.8|
0,4,0.95|
0,5,9.7|
0,6,1|
0,7,5.5|
1,0,2.3|
1,1,9.7|
1,2,8.1|
1,3,1.1|
1,4,6.1|
1,5,0.68|
1,6,8.1|
1,7,6.1|
2,0,8.1|
2,1,5.3|
2,2,8.9|
2,3,8.4|
2,4,5.4|
2,5,7.6|
2,6,3.1|
2,7,9.6|
3,0,8.9|
3,1,5.8|
3,2,1.7|
3,3,4.1|
3,4,0.24|
3,5,3.1|
3,6,0.61|
3,7,2.7|
4,0,7.3|
4,1,9.6|
4,2,6.3|
4,3,3.7|
4,4,5.8|
4,5,3.4|
4,6,3.8|
4,7,2.1|
5,0,1.4|
5,1,7.2|
5,2,6.4|
5,3,8.8|
5,4,4.9|
5,5,8.2|
5,6,8.3|
5,7,2.9|
6,0,1.2|
6,1,0.38|
6,2,9.9|
6,3,4.5|
6,4,2.2|
6,5,7.4|
6,6,5.4|
6,7,1.1|
7,0,3.1|
7,1,3.1|
7,2,4|
7,3,7.8|
7,4,7.5|
7,5,2.4|
7,6,10|
7,7,5.6|
];
constraint_x13_x9=[
0,0,9|
0,1,4|
0,2,4.6|
0,3,1.4|
0,4,4|
0,5,9.7|
0,6,2.9|
0,7,5.6|
1,0,0.41|
1,1,7.5|
1,2,7.5|
1,3,4.6|
1,4,8.2|
1,5,6.2|
1,6,7|
1,7,3.9|
2,0,3.3|
2,1,7.9|
2,2,0.082|
2,3,0.16|
2,4,1.1|
2,5,6.6|
2,6,8|
2,7,1.5|
3,0,0.4|
3,1,3.4|
3,2,6|
3,3,4.5|
3,4,4.7|
3,5,3.1|
3,6,9|
3,7,4.1|
4,0,2.4|
4,1,7.7|
4,2,1.4|
4,3,4.9|
4,4,2.1|
4,5,3.6|
4,6,0.63|
4,7,1.2|
5,0,8.9|
5,1,0.72|
5,2,4.8|
5,3,2.6|
5,4,3.6|
5,5,4.4|
5,6,4.9|
5,7,2|
6,0,0.82|
6,1,7.3|
6,2,1.8|
6,3,9.6|
6,4,5.9|
6,5,8.1|
6,6,7.1|
6,7,6|
7,0,7.2|
7,1,8|
7,2,7.6|
7,3,6|
7,4,3.1|
7,5,0.62|
7,6,7|
7,7,3.9|
];
constraint_x14_x10=[
0,0,0.086|
0,1,6.9|
0,2,5.6|
0,3,5.1|
0,4,1.5|
0,5,5.3|
0,6,9.4|
0,7,8.3|
1,0,3.3|
1,1,2.8|
1,2,3|
1,3,9.2|
1,4,3.3|
1,5,9.2|
1,6,0.3|
1,7,2.8|
2,0,4.6|
2,1,5|
2,2,8|
2,3,0.37|
2,4,3.5|
2,5,5|
2,6,2.5|
2,7,9.2|
3,0,9.2|
3,1,1.7|
3,2,8.5|
3,3,5.9|
3,4,6|
3,5,7.5|
3,6,7.3|
3,7,2.5|
4,0,6.3|
4,1,8.2|
4,2,9.8|
4,3,0.34|
4,4,6.3|
4,5,8.5|
4,6,7.3|
4,7,3.4|
5,0,3.4|
5,1,2.3|
5,2,4.2|
5,3,5.5|
5,4,7.1|
5,5,8.4|
5,6,7.6|
5,7,1.1|
6,0,0.86|
6,1,5.2|
6,2,6.8|
6,3,7.3|
6,4,0.047|
6,5,1.8|
6,6,1.8|
6,7,1.3|
7,0,0.5|
7,1,4.8|
7,2,0.26|
7,3,0.39|
7,4,0.18|
7,5,9.6|
7,6,5.6|
7,7,5.3|
];
constraint_x1_y1=[
0,0,4.2|
0,1,4|
0,2,8.8|
0,3,7.8|
0,4,1.4|
0,5,2.8|
0,6,9.8|
0,7,5.2|
1,0,0.18|
1,1,1.8|
1,2,2.2|
1,3,4.7|
1,4,1.8|
1,5,5.8|
1,6,3.3|
1,7,4.5|
2,0,3.3|
2,1,2.1|
2,2,7.2|
2,3,9|
2,4,1.3|
2,5,7.6|
2,6,1.2|
2,7,8.1|
3,0,9.5|
3,1,8.7|
3,2,6.7|
3,3,2.8|
3,4,4.5|
3,5,9.3|
3,6,8.3|
3,7,0.29|
4,0,3.4|
4,1,5.3|
4,2,9.2|
4,3,3.5|
4,4,5.6|
4,5,1.7|
4,6,3.3|
4,7,7.7|
5,0,5.1|
5,1,8|
5,2,3.9|
5,3,5|
5,4,5.9|
5,5,6.6|
5,6,0.58|
5,7,7.1|
6,0,4.1|
6,1,3.6|
6,2,6.6|
6,3,1.6|
6,4,4.3|
6,5,8.3|
6,6,7.4|
6,7,0.49|
7,0,4.6|
7,1,3.4|
7,2,9|
7,3,5.4|
7,4,9.5|
7,5,7.1|
7,6,1.8|
7,7,6|
];
constraint_x2_y2=[
0,0,7.7|
0,1,3|
0,2,7|
0,3,6.5|
0,4,3|
0,5,3.8|
0,6,8.7|
0,7,5.4|
1,0,6.9|
1,1,3.7|
1,2,0.87|
1,3,4.9|
1,4,1.8|
1,5,9.6|
1,6,4.1|
1,7,9.8|
2,0,9|
2,1,3.6|
2,2,9.1|
2,3,9.4|
2,4,7.2|
2,5,2.5|
2,6,9.7|
2,7,9.3|
3,0,7.6|
3,1,4.7|
3,2,2.1|
3,3,7.2|
3,4,4.3|
3,5,7.3|
3,6,3.7|
3,7,6.2|
4,0,10|
4,1,3.7|
4,2,5.3|
4,3,8.8|
4,4,0.0042|
4,5,4.6|
4,6,9.8|
4,7,2.1|
5,0,2.1|
5,1,8.3|
5,2,3|
5,3,8.4|
5,4,0.46|
5,5,5.9|
5,6,8.2|
5,7,7.3|
6,0,7.3|
6,1,9.1|
6,2,0.7|
6,3,2.2|
6,4,7.3|
6,5,6.8|
6,6,5.8|
6,7,10|
7,0,0.96|
7,1,2.2|
7,2,0.63|
7,3,2.7|
7,4,5.1|
7,5,5.4|
7,6,5.3|
7,7,9.7|
];
constraint_x3_y3=[
0,0,2.3|
0,1,3.8|
0,2,7.2|
0,3,5.8|
0,4,6|
0,5,0.41|
0,6,0.15|
0,7,4|
1,0,5.8|
1,1,2.4|
1,2,0.12|
1,3,8.2|
1,4,2.2|
1,5,3.3|
1,6,5.8|
1,7,2.4|
2,0,0.24|
2,1,6.8|
2,2,8|
2,3,4.1|
2,4,4.1|
2,5,7.2|
2,6,4.8|
2,7,9.1|
3,0,8.6|
3,1,3.9|
3,2,8.7|
3,3,9|
3,4,8.4|
3,5,5.9|
3,6,9.6|
3,7,2.6|
4,0,0.64|
4,1,4|
4,2,5.3|
4,3,9.2|
4,4,9.7|
4,5,7.7|
4,6,7.7|
4,7,7.9|
5,0,8.2|
5,1,3.4|
5,2,7.2|
5,3,2.3|
5,4,9.8|
5,5,0.29|
5,6,3.1|
5,7,3.3|
6,0,3|
6,1,0.31|
6,2,1.7|
6,3,7.7|
6,4,3.1|
6,5,1.2|
6,6,8.4|
6,7,7.9|
7,0,8.6|
7,1,9.7|
7,2,0.77|
7,3,0.37|
7,4,1.5|
7,5,9.6|
7,6,9.9|
7,7,1.9|
];
constraint_x4_y4=[
0,0,3.3|
0,1,5.7|
0,2,3.5|
0,3,5|
0,4,0.63|
0,5,6.1|
0,6,2.6|
0,7,0.86|
1,0,7.4|
1,1,8.1|
1,2,6.9|
1,3,7.3|
1,4,7.8|
1,5,6.8|
1,6,8.6|
1,7,2.7|
2,0,4.5|
2,1,8.6|
2,2,3.7|
2,3,2.7|
2,4,4.5|
2,5,5.2|
2,6,4.7|
2,7,1.8|
3,0,6.5|
3,1,7|
3,2,7.5|
3,3,4|
3,4,6.4|
3,5,7.1|
3,6,8|
3,7,5.1|
4,0,0.079|
4,1,5.6|
4,2,9.5|
4,3,0.15|
4,4,5.8|
4,5,9.2|
4,6,7.8|
4,7,3.4|
5,0,8.1|
5,1,1.7|
5,2,9.2|
5,3,5.4|
5,4,6.1|
5,5,6.1|
5,6,2.1|
5,7,1.6|
6,0,1.4|
6,1,3.3|
6,2,3.6|
6,3,7.6|
6,4,9.2|
6,5,5.7|
6,6,2|
6,7,9.4|
7,0,4.4|
7,1,8|
7,2,2.3|
7,3,4.8|
7,4,1.2|
7,5,7.4|
7,6,0.84|
7,7,8.9|
];
constraint_x5_y5=[
0,0,3.7|
0,1,2|
0,2,8.2|
0,3,1.7|
0,4,7.6|
0,5,9.2|
0,6,8.5|
0,7,3.3|
1,0,1.2|
1,1,8.6|
1,2,6.9|
1,3,8|
1,4,4.6|
1,5,3.5|
1,6,10|
1,7,2.9|
2,0,6.4|
2,1,3.3|
2,2,7.5|
2,3,3.2|
2,4,1.4|
2,5,5.5|
2,6,9.8|
2,7,1.7|
3,0,8.1|
3,1,4.8|
3,2,0.57|
3,3,5.3|
3,4,9|
3,5,6.4|
3,6,3.1|
3,7,4.2|
4,0,5.9|
4,1,3.1|
4,2,3.2|
4,3,4.2|
4,4,7.4|
4,5,3.2|
4,6,4.2|
4,7,6.6|
5,0,1.2|
5,1,1.5|
5,2,6.2|
5,3,3.3|
5,4,7|
5,5,6.1|
5,6,1.1|
5,7,5.7|
6,0,3.7|
6,1,9.8|
6,2,7.2|
6,3,9.7|
6,4,6.4|
6,5,9.5|
6,6,3.7|
6,7,9.7|
7,0,4.9|
7,1,2.9|
7,2,0.5|
7,3,2.4|
7,4,0.83|
7,5,5|
7,6,2.6|
7,7,3.2|
];
constraint_x6_y6=[
0,0,0.41|
0,1,1.6|
0,2,4.2|
0,3,4.1|
0,4,9.8|
0,5,4.7|
0,6,9.8|
0,7,4.5|
1,0,1.6|
1,1,7.9|
1,2,2.9|
1,3,2.4|
1,4,7.5|
1,5,5.4|
1,6,9.5|
1,7,3.9|
2,0,8.7|
2,1,4.2|
2,2,7.4|
2,3,9.3|
2,4,6|
2,5,7.5|
2,6,7|
2,7,0.2|
3,0,0.25|
3,1,1.1|
3,2,5.9|
3,3,4.9|
3,4,9.5|
3,5,9.9|
3,6,4.4|
3,7,8.8|
4,0,4.9|
4,1,2.8|
4,2,7.4|
4,3,0.56|
4,4,7|
4,5,7.3|
4,6,3.3|
4,7,8.6|
5,0,1.3|
5,1,2.1|
5,2,5.5|
5,3,7.9|
5,4,6.4|
5,5,4.3|
5,6,2.7|
5,7,8.7|
6,0,5|
6,1,4.8|
6,2,4.7|
6,3,1.6|
6,4,6.6|
6,5,1.1|
6,6,0.82|
6,7,1.8|
7,0,2|
7,1,3.1|
7,2,2.7|
7,3,6.6|
7,4,5.4|
7,5,0.98|
7,6,0.98|
7,7,8.3|
];
initial_distribution_y1=[0.23,0.12,0.071,0.032,0.15,0.17,0.046,0.18];
initial_distribution_y2=[0.061,0.048,0.16,0.037,0.15,0.0081,0.27,0.26];
initial_distribution_y3=[0.15,0.052,0.2,0.011,0.13,0.2,0.049,0.2];
initial_distribution_y4=[0.18,0.18,0.14,0.17,0.027,0.019,0.14,0.15];
initial_distribution_y5=[0.034,0.22,0.018,0.14,0.15,0.21,0.12,0.097];
initial_distribution_y6=[0.21,0.06,0.064,0.19,0.071,0.15,0.21,0.046];
transition_y1=[
0.081,0.23,0.096,0.16,0.071,0.16,0.1,0.11|
0.047,0.13,0.12,0.2,0.12,0.19,0.081,0.11|
0.084,0.1,0.15,0.13,0.17,0.047,0.15,0.17|
0.15,0.15,0.18,0.0077,0.097,0.12,0.11,0.18|
0.15,0.15,0.083,0.15,0.088,0.077,0.16,0.15|
0.097,0.11,0.24,0.0031,0.094,0.2,0.17,0.081|
0.13,0.068,0.15,0.14,0.048,0.095,0.23,0.15|
0.086,0.19,0.12,0.18,0.026,0.13,0.22,0.056|
];
transition_y2=[
0.029,0.057,0.19,0.21,0.14,0.12,0.14,0.12|
0.15,0.14,0.17,0.17,0.12,0.15,0.017,0.084|
0.04,0.24,0.042,0.21,0.089,0.11,0.11,0.15|
0.2,0.088,0.098,0.16,0.11,0.14,0.18,0.034|
0.13,0.049,0.17,0.11,0.2,0.026,0.22,0.1|
0.14,0.11,0.11,0.19,0.054,0.029,0.22,0.14|
0.077,0.19,0.13,0.21,0.094,0.029,0.17,0.097|
0.15,0.23,0.13,0.079,0.069,0.074,0.16,0.11|
];
transition_y3=[
0.17,0.085,0.17,0.15,0.097,0.16,0.013,0.16|
0.2,0.067,0.12,0.22,0.15,0.2,0.023,0.025|
0.097,0.05,0.21,0.23,0.21,0.044,0.047,0.11|
0.069,0.14,0.24,0.03,0.17,0.25,0.079,0.021|
0.17,0.14,0.27,0.036,0.051,0.16,0.052,0.13|
0.094,0.14,0.11,0.16,0.16,0.11,0.12,0.092|
0.19,0.2,0.16,0.037,0.14,0.16,0.11,0.0073|
0.057,0.15,0.15,0.13,0.14,0.15,0.067,0.16|
];
transition_y4=[
0.0051,0.026,0.047,0.32,0.15,0.07,0.26,0.12|
0.2,0.072,0.095,0.087,0.25,0.095,0.16,0.047|
0.11,0.072,0.072,0.21,0.19,0.17,0.1,0.07|
0.02,0.22,0.11,0.14,0.061,0.23,0.2,0.01|
0.038,0.22,0.017,0.12,0.27,0.014,0.13,0.19|
0.2,0.13,0.16,0.065,0.069,0.16,0.035,0.18|
0.011,0.072,0.21,0.24,0.029,0.15,0.085,0.21|
0.081,0.091,0.19,0.19,0.16,0.034,0.13,0.13|
];
transition_y5=[
0.19,0.25,0.0053,0.016,0.11,0.17,0.2,0.066|
0.29,0.039,0.22,0.087,0.039,0.0068,0.21,0.11|
0.075,0.042,0.041,0.15,0.11,0.096,0.24,0.24|
0.11,0.11,0.12,0.076,0.11,0.2,0.17,0.11|
0.0042,0.13,0.19,0.067,0.27,0.012,0.27,0.063|
0.17,0.031,0.21,0.01,0.19,0.066,0.11,0.21|
0.066,0.21,0.14,0.076,0.15,0.1,0.027,0.23|
0.096,0.045,0.22,0.18,0.023,0.13,0.22,0.086|
];
transition_y6=[
0.067,0.14,0.0072,0.12,0.19,0.13,0.16,0.18|
0.14,0.068,0.21,0.14,0.12,0.16,0.077,0.086|
0.063,0.12,0.25,0.12,0.061,0.11,0.07,0.2|
0.18,0.063,0.14,0.076,0.19,0.11,0.18,0.069|
0.016,0.23,0.12,0.12,0.13,0.22,0.13,0.033|
0.08,0.0089,0.2,0.14,0.13,0.21,0.14,0.095|
0.027,0.24,0.32,0.13,0.11,0.089,0.034,0.057|
0.19,0.13,0.0084,0.055,0.19,0.014,0.21,0.2|
];
